Version identifier: 22.1.0.0 | 2022-03-09 | 1a383f8ce
CPXPARAM_Threads                                 1
CPXPARAM_MIP_Strategy_VariableSelect             3
CPXPARAM_TimeLimit                               600
Tried aggregator 1 time.
Reduced MIP has 920 rows, 3600 columns, and 20105 nonzeros.
Reduced MIP has 2600 binaries, 1000 generals, 0 SOSs, and 0 indicators.
Presolve time = 0.01 sec. (8.50 ticks)
Found incumbent of value 1.486255 after 0.03 sec. (21.65 ticks)
Probing time = 0.00 sec. (3.08 ticks)
Tried aggregator 1 time.
Detecting symmetries...
Reduced MIP has 920 rows, 3600 columns, and 20105 nonzeros.
Reduced MIP has 2600 binaries, 1000 generals, 0 SOSs, and 0 indicators.
Presolve time = 0.01 sec. (10.41 ticks)
Probing time = 0.00 sec. (3.08 ticks)
Clique table members: 116.
MIP emphasis: balance optimality and feasibility.
MIP search method: dynamic search.
Parallel mode: none, using 1 thread.
Root relaxation solution time = 0.15 sec. (145.98 ticks)

        Nodes                                         Cuts/
   Node  Left     Objective  IInf  Best Integer    Best Bound    ItCnt     Gap

*     0+    0                            1.4863        0.0000           100.00%
      0     0        0.0000   815        1.4863        0.0000     1589  100.00%
      0     0        0.0000   578        1.4863   ZeroHalf: 1     1651  100.00%
      0     0        0.0000   728        1.4863      Cuts: 31     2997  100.00%
*     0+    0                            0.1238        0.0000           100.00%
      0     0        0.0000   200        0.1238   ZeroHalf: 1     3046  100.00%
*     0+    0                            0.0737        0.0000           100.00%
*     0+    0                            0.0608        0.0000           100.00%
*     0+    0                            0.0382        0.0000           100.00%
*     0+    0                            0.0368        0.0000           100.00%
*     0+    0                            0.0316        0.0000           100.00%
      0     0  -1.00000e+75     0        0.0316        0.0000     3046  100.00%
      0     0        0.0000   246        0.0316  ZeroHalf: 33     3359  100.00%
*     0+    0                            0.0025        0.0000           100.00%
Detecting symmetries...
      0     2        0.0000    78        0.0025        0.0000     3359  100.00%
Elapsed time = 3.62 sec. (3482.69 ticks, tree = 0.01 MB, solutions = 8)
      1     3        0.0000    44        0.0025        0.0000     4746  100.00%
      2     4        0.0000   619        0.0025        0.0000     6737  100.00%
      3     5        0.0000   108        0.0025        0.0000     7821  100.00%
      5     7        0.0000   117        0.0025        0.0000     8317  100.00%
      7     9        0.0000   101        0.0025        0.0000     9821  100.00%
      9    11        0.0000   360        0.0025        0.0000    11815  100.00%
     11    13        0.0000    86        0.0025        0.0000    12226  100.00%
*    14     1      integral     0        0.0000        0.0000    12602    0.00%

Zero-half cuts applied:  8
Gomory fractional cuts applied:  1

Root node processing (before b&c):
  Real time             =    3.61 sec. (3471.97 ticks)
Sequential b&c:
  Real time             =    2.55 sec. (2494.80 ticks)
                          ------------
Total (root+branch&cut) =    6.16 sec. (5966.77 ticks)
Violation-free sequence bound:	100
Unscheduled:	0
Status:	Optimal
Time:	6.16
Sequence:
	19
	10
	2
	14
	10
	12
	17
	5
	1
	19
	3
	5
	9
	13
	2
	5
	14
	12
	5
	15
	9
	5
	4
	9
	5
	15
	9
	18
	15
	3
	8
	13
	2
	11
	13
	1
	11
	4
	1
	8
	15
	0
	8
	13
	3
	11
	13
	12
	11
	4
	1
	8
	15
	3
	18
	14
	6
	10
	14
	12
	10
	17
	1
	16
	17
	0
	16
	19
	0
	5
	19
	6
	16
	17
	1
	5
	19
	6
	16
	17
	1
	5
	14
	2
	16
	7
	4
	16
	9
	15
	5
	9
	13
	5
	6
	19
	10
	12
	4
	8
Violation-free sequence:
	19
	10
	2
	14
	10
	12
	17
	5
	1
	19
	3
	5
	9
	13
	2
	5
	14
	12
	5
	15
	9
	5
	4
	9
	5
	15
	9
	18
	15
	3
	8
	13
	2
	11
	13
	1
	11
	4
	1
	8
	15
	0
	8
	13
	3
	11
	13
	12
	11
	4
	1
	8
	15
	3
	18
	14
	6
	10
	14
	12
	10
	17
	1
	16
	17
	0
	16
	19
	0
	5
	19
	6
	16
	17
	1
	5
	19
	6
	16
	17
	1
	5
	14
	2
	16
	7
	4
	16
	9
	15
	5
	9
	13
	5
	6
	19
	10
	12
	4
	8
